# --------------------- INITIALIZAITION ---------------------
clear
units		metal
dimension	3
boundary	p p p
atom_style	atomic

read_data	sf.data

# --------------------- FORCE FIELDS ---------------------
# ---------- Define Interatomic Potential --------------------- 
pair_style	eam/alloy
pair_coeff * * ../FeCuNi.eam.alloy Ni

neighbor    0.3 bin                ## define parameters for neighbor list
neigh_modify    delay 0 every 1 check yes

timestep	0.00025

fix 1 all ipi sf-90K-l-AW 32346 unix

#dump		1 all xyz 25 dump.xyz

run		100000000

